zeolite-GME                             
   1.00000000000000     
    13.7052176656990365    0.0000000000000000    0.0000000000000000
    -6.8526088328495183   11.8690673440006087    0.0000000000000000
     0.0000000000000000    0.0000000000000000    9.8739316857179276
   O    Si
    48    24
Direct
  0.5662269625068641  0.1324539192773321  0.0640223413856432   T   T   T
  0.8675460807226497  0.4337720432295184  0.0640223413856432   T   T   T
  0.5662269567704679  0.4337720374931435  0.0640223413856432   T   T   T
  0.4337730374931409  0.8675450807226522  0.5640223413856446   T   T   T
  0.1324539192773321  0.5662259567704704  0.5640223413856446   T   T   T
  0.4337730432295220  0.5662259625068595  0.5640223413856446   T   T   T
  0.1324539192773392  0.5662259625068595  0.9359776586143554   T   T   T
  0.4337730432295159  0.8675450807226522  0.9359776586143554   T   T   T
  0.4337730374931409  0.5662259567704846  0.9359776586143554   T   T   T
  0.8675460807226497  0.4337720374931435  0.4359776586143495   T   T   T
  0.5662269567704679  0.1324539192773392  0.4359776586143495   T   T   T
  0.5662269625068641  0.4337720432295184  0.4359776586143495   T   T   T
  0.3492816155994209  0.0000000000000000 -0.0000000000000000   T   T   T
  0.0000000000000000  0.3492806155994164 -0.0000000000000000   T   T   T
  0.6507183844005953  0.6507173844005907 -0.0000000000000000   T   T   T
  0.6507183844005953 -0.0000000000000000  0.5000000000000000   T   T   T
 -0.0000000000000000  0.6507173844005907  0.5000000000000000   T   T   T
  0.3492816155994209  0.3492806155994164  0.5000000000000000   T   T   T
  0.6507183935915579 -0.0000000000000000 -0.0000000000000000   T   T   T
 -0.0000000000000000  0.6507173935915747 -0.0000000000000000   T   T   T
  0.3492816064084228  0.3492806064084253 -0.0000000000000000   T   T   T
  0.3492816064084228 -0.0000000000000000  0.5000000000000000   T   T   T
  0.0000000000000000  0.3492806064084253  0.5000000000000000   T   T   T
  0.6507183935915721  0.6507173935915747  0.5000000000000000   T   T   T
  0.4049477074792209  0.0747902590197827  0.2500000029867238   T   T   T
  0.9252087409801883  0.3301554484594629  0.2500000029867238   T   T   T
  0.6698435515405422  0.5950512925207629  0.2500000029867238   T   T   T
  0.5950522925207671  0.9252077409801909  0.7500000029867167   T   T   T
  0.0747912590197873  0.6698425515405447  0.7500000029867167   T   T   T
  0.3301564484594675  0.4049467074792232  0.7500000029867167   T   T   T
  0.0747912590197873  0.4049467074792234  0.7499999970132833   T   T   T
  0.3301564484594532  0.9252077409801909  0.7499999970132833   T   T   T
  0.5950522925207671  0.6698425515405447  0.7499999970132833   T   T   T
  0.9252087409801883  0.5950512925207629  0.2499999970132691   T   T   T
  0.6698435515405422  0.0747902590197827  0.2499999970132691   T   T   T
  0.4049477074792209  0.3301554484594629  0.2499999970132691   T   T   T
  0.4291251242059218  0.2145616844618687  0.0479546110804784   T   T   T
  0.7854373155381371  0.2145624397440628  0.0479546110804779   T   T   T
  0.7854375602559547  0.5708738757940518  0.0479546110804779   T   T   T
  0.5708748757940635  0.7854363155381254  0.5479546110804948   T   T   T
  0.2145626844618661  0.7854365602559501  0.5479546110804948   T   T   T
  0.2145624397440628  0.4291241242059243  0.5479546110804948   T   T   T
  0.2145626844618661  0.4291241242059243  0.9520453889195052   T   T   T
  0.2145624397440628  0.7854363155381254  0.9520453889195052   T   T   T
  0.5708748757940564  0.7854365602559501  0.9520453889195052   T   T   T
  0.7854373155381371  0.5708738757940518  0.4520453889195308   T   T   T
  0.7854375602559547  0.2145616844618687  0.4520453889195332   T   T   T
  0.4291251242059218  0.2145624397440628  0.4520453889195332   T   T   T
  0.4379161945438300  0.1053420966262485  0.0913744102754049   T   T   T
  0.8946569033737418  0.3325720979175833  0.0913744102754049   T   T   T
  0.6674269020824301  0.5620828054561602  0.0913744102754049   T   T   T
  0.5620838054561577  0.8946559033737443  0.5913744102754011   T   T   T
  0.1053430966262460  0.6674259020824255  0.5913744102754011   T   T   T
  0.3325730979175808  0.4379151945438325  0.5913744102754011   T   T   T
  0.1053430966262460  0.4379151945438271  0.9086255897245989   T   T   T
  0.3325730979175808  0.8946559033737443  0.9086255897245989   T   T   T
  0.5620838054561577  0.6674259020824255  0.9086255897245989   T   T   T
  0.8946569033737418  0.5620828054561602  0.4086255897246006   T   T   T
  0.6674269020824301  0.1053420966262485  0.4086255897246006   T   T   T
  0.4379161945438246  0.3325720979175833  0.4086255897246006   T   T   T
  0.5620838093723282  0.8946559029767925  0.9086255915773036   T   T   T
  0.1053430970232191  0.6674259063955478  0.9086255915773036   T   T   T
  0.3325730936044727  0.4379151906276779  0.9086255915773036   T   T   T
  0.4379161906276808  0.1053420970232216  0.4086255915772981   T   T   T
  0.8946569029767758  0.3325720936044752  0.4086255915772981   T   T   T
  0.6674269063955452  0.5620828093723307  0.4086255915772981   T   T   T
  0.8946569029767900  0.5620828093723307  0.0913744084227002   T   T   T
  0.6674269063955452  0.1053420970232216  0.0913744084227002   T   T   T
  0.4379161906276595  0.3325720936044752  0.0913744084227002   T   T   T
  0.1053430970232191  0.4379151906276779  0.5913744084226964   T   T   T
  0.3325730936044727  0.8946559029767925  0.5913744084226964   T   T   T
  0.5620838093723282  0.6674259063955478  0.5913744084226964   T   T   T
 
  0.00000000E+00  0.00000000E+00  0.00000000E+00
  0.00000000E+00  0.00000000E+00  0.00000000E+00
  0.00000000E+00  0.00000000E+00  0.00000000E+00
  0.00000000E+00  0.00000000E+00  0.00000000E+00
  0.00000000E+00  0.00000000E+00  0.00000000E+00
  0.00000000E+00  0.00000000E+00  0.00000000E+00
  0.00000000E+00  0.00000000E+00  0.00000000E+00
  0.00000000E+00  0.00000000E+00  0.00000000E+00
  0.00000000E+00  0.00000000E+00  0.00000000E+00
  0.00000000E+00  0.00000000E+00  0.00000000E+00
  0.00000000E+00  0.00000000E+00  0.00000000E+00
  0.00000000E+00  0.00000000E+00  0.00000000E+00
  0.00000000E+00  0.00000000E+00  0.00000000E+00
  0.00000000E+00  0.00000000E+00  0.00000000E+00
  0.00000000E+00  0.00000000E+00  0.00000000E+00
  0.00000000E+00  0.00000000E+00  0.00000000E+00
  0.00000000E+00  0.00000000E+00  0.00000000E+00
  0.00000000E+00  0.00000000E+00  0.00000000E+00
  0.00000000E+00  0.00000000E+00  0.00000000E+00
  0.00000000E+00  0.00000000E+00  0.00000000E+00
  0.00000000E+00  0.00000000E+00  0.00000000E+00
  0.00000000E+00  0.00000000E+00  0.00000000E+00
  0.00000000E+00  0.00000000E+00  0.00000000E+00
  0.00000000E+00  0.00000000E+00  0.00000000E+00
  0.00000000E+00  0.00000000E+00  0.00000000E+00
  0.00000000E+00  0.00000000E+00  0.00000000E+00
  0.00000000E+00  0.00000000E+00  0.00000000E+00
  0.00000000E+00  0.00000000E+00  0.00000000E+00
  0.00000000E+00  0.00000000E+00  0.00000000E+00
  0.00000000E+00  0.00000000E+00  0.00000000E+00
  0.00000000E+00  0.00000000E+00  0.00000000E+00
  0.00000000E+00  0.00000000E+00  0.00000000E+00
  0.00000000E+00  0.00000000E+00  0.00000000E+00
  0.00000000E+00  0.00000000E+00  0.00000000E+00
  0.00000000E+00  0.00000000E+00  0.00000000E+00
  0.00000000E+00  0.00000000E+00  0.00000000E+00
  0.00000000E+00  0.00000000E+00  0.00000000E+00
  0.00000000E+00  0.00000000E+00  0.00000000E+00
  0.00000000E+00  0.00000000E+00  0.00000000E+00
  0.00000000E+00  0.00000000E+00  0.00000000E+00
  0.00000000E+00  0.00000000E+00  0.00000000E+00
  0.00000000E+00  0.00000000E+00  0.00000000E+00
  0.00000000E+00  0.00000000E+00  0.00000000E+00
  0.00000000E+00  0.00000000E+00  0.00000000E+00
  0.00000000E+00  0.00000000E+00  0.00000000E+00
  0.00000000E+00  0.00000000E+00  0.00000000E+00
  0.00000000E+00  0.00000000E+00  0.00000000E+00
  0.00000000E+00  0.00000000E+00  0.00000000E+00
  0.00000000E+00  0.00000000E+00  0.00000000E+00
  0.00000000E+00  0.00000000E+00  0.00000000E+00
  0.00000000E+00  0.00000000E+00  0.00000000E+00
  0.00000000E+00  0.00000000E+00  0.00000000E+00
  0.00000000E+00  0.00000000E+00  0.00000000E+00
  0.00000000E+00  0.00000000E+00  0.00000000E+00
  0.00000000E+00  0.00000000E+00  0.00000000E+00
  0.00000000E+00  0.00000000E+00  0.00000000E+00
  0.00000000E+00  0.00000000E+00  0.00000000E+00
  0.00000000E+00  0.00000000E+00  0.00000000E+00
  0.00000000E+00  0.00000000E+00  0.00000000E+00
  0.00000000E+00  0.00000000E+00  0.00000000E+00
  0.00000000E+00  0.00000000E+00  0.00000000E+00
  0.00000000E+00  0.00000000E+00  0.00000000E+00
  0.00000000E+00  0.00000000E+00  0.00000000E+00
  0.00000000E+00  0.00000000E+00  0.00000000E+00
  0.00000000E+00  0.00000000E+00  0.00000000E+00
  0.00000000E+00  0.00000000E+00  0.00000000E+00
  0.00000000E+00  0.00000000E+00  0.00000000E+00
  0.00000000E+00  0.00000000E+00  0.00000000E+00
  0.00000000E+00  0.00000000E+00  0.00000000E+00
  0.00000000E+00  0.00000000E+00  0.00000000E+00
  0.00000000E+00  0.00000000E+00  0.00000000E+00
  0.00000000E+00  0.00000000E+00  0.00000000E+00
